/* Objective function */
max: 40*A1+91*A2+3*A3+12*A4+3*A5+18*A6+25*A7+49*A8+0*A9+8*A10+42*A11+16*A12+19*A13+8*A14+21*A15+6*A16+17*A17+28*A18
     +16*B1+92*B2+4*B3+18*B4+6*B5+0*B6+8*B7+51*B8+10*B9+6*B10+8*B11+20*B12+47*B13+9*B14+22*B15+4*B16+9*B17+67*B18
     +38*C1+39*C2+5*C3+40*C4+8*C5+12*C6+15*C7+40*C8+20*C9+20*C10+8*C11+12*C12+40*C13+6*C14+8*C15+0*C16+16*C17+21*C18
     +38*D1+52*D2+7*D3+20*D4+0*D5+3*D6+4*D7+18*D8+3*D9+4*D10+6*D11+30*D12+18*D13+15*D14+38*D15+10*D16+5*D17+8*D18;
/* Constraints */
A1+B1+C1+D1=1;
A2+B2+C2+D2=1;
A3+B3+C3+D3=1;
A4+B4+C4+D4=1;
A5+B5+C5+D5=1;
A6+B6+C6+D6=1;
A7+B7+C7+D7=1;
A8+B8+C8+D8=1;
A9+B9+C9+D9=1;
A10+B10+C10+D10=1;
A11+B11+C11+D11=1;
A12+B12+C12+D12=1;
A13+B13+C13+D13=1;
A14+B14+C14+D14=1;
A15+B15+C15+D15=1;
A16+B16+C16+D16=1;
A17+B17+C17+D17=1;
A18+B18+C18+D18=1;

A1+A2+A3+A4+A5+A6+A7+A8+A9+A10+A11+A12+A13+A14+A15+A16+A17+A18>=2;
B1+B2+B3+B4+B5+B6+B7+B8+B9+B10+B11+B12+B13+B14+B15+B16+B17+B18>=2;
C1+C2+C3+C4+C5+C6+C7+C8+C9+C10+C11+C12+C13+C14+C15+C16+C17+C18>=2;
D1+D2+D3+D4+D5+D6+D7+D8+D9+D10+D11+D12+D13+D14+D15+D16+D17+D18>=2;

A10+A11<=1;  B10+B11<=1;  C10+C11<=1;  D10+D11<=1;

B1+B2+B3+B4+B5+B6+B7+B8+B9+B10+B11+B12+B13+B14+B15+B16+B17+B18<=3;
C1+C2+C3+C4+C5+C6+C7+C8+C9+C10+C11+C12+C13+C14+C15+C16+C17+C18<=3;
B1+B2+B3+B4+B5=2;
C1+C2+C3+C4+C5=2;

A18+D18=1;

A15-A16=0;  B15-B16=0;  C15-C16=0;  D15-D16=0;

A1+A2+A3+A4+A5+A6+A7+A8+A9+A10+A11+A12+A13+A14+A15+A16+A17+A18=8-4Y;
/* Variable bounds */
bin Y;
bin A1,A2,A3,A4,A5,A6,A7,A8,A9,A10,A11,A12,A13,A14,A15,A16,A17,A18;
bin B1,B2,B3,B4,B5,B6,B7,B8,B9,B10,B11,B12,B13,B14,B15,B16,B17,B18;
bin C1,C2,C3,C4,C5,C6,C7,C8,C9,C10,C11,C12,C13,C14,C15,C16,C17,C18;
bin D1,D2,D3,D4,D5,D6,D7,D8,D9,D10,D11,D12,D13,D14,D15,D16,D17,D18;